61
1 0 44
2 0 44
2 1 52
3 0 10
3 1 39
3 2 4
4 0 3
4 1 28
4 2 22
4 3 17
5 0 6
5 1 24
5 2 18
5 3 17
5 4 44
6 0 43
6 1 22
6 2 19
6 3 43
6 4 47
6 5 21
7 0 13
7 1 13
7 2 24
7 3 44
7 4 47
7 5 35
7 6 23
8 0 56
8 1 39
8 2 28
8 3 23
8 4 16
8 5 29
8 6 12
8 7 50
9 0 39
9 1 39
9 2 40
9 3 13
9 4 22
9 5 11
9 6 47
9 7 8
9 8 28
10 0 17
10 1 39
10 2 15
10 3 43
10 4 19
10 5 3
10 6 38
10 7 36
10 8 3
10 9 6
11 0 50
11 1 16
11 2 29
11 3 39
11 4 19
11 5 7
11 6 31
11 7 49
11 8 38
11 9 21
11 10 10
12 0 37
12 1 12
12 2 56
12 3 30
12 4 7
12 5 18
12 6 5
12 7 11
12 8 15
12 9 40
12 10 20
12 11 56
13 0 16
13 1 46
13 2 26
13 3 39
13 4 9
13 5 49
13 6 7
13 7 55
13 8 45
13 9 12
13 10 34
13 11 48
13 12 2
14 0 48
14 1 36
14 2 17
14 3 6
14 4 38
14 5 4
14 6 43
14 7 45
14 8 31
14 9 48
14 10 51
14 11 56
14 12 9
14 13 52
15 0 25
15 1 27
15 2 29
15 3 27
15 4 22
15 5 16
15 6 19
15 7 9
15 8 45
15 9 39
15 10 54
15 11 38
15 12 48
15 13 5
15 14 6
16 0 40
16 1 42
16 2 48
16 3 56
16 4 43
16 5 2
16 6 11
16 7 27
16 8 52
16 9 18
16 10 43
16 11 9
16 12 18
16 13 54
16 14 3
16 15 51
17 0 36
17 1 52
17 2 13
17 3 49
17 4 23
17 5 31
17 6 52
17 7 6
17 8 30
17 9 38
17 10 48
17 11 26
17 12 18
17 13 51
17 14 36
17 15 15
17 16 16
18 0 32
18 1 48
18 2 53
18 3 8
18 4 38
18 5 29
18 6 36
18 7 52
18 8 8
18 9 12
18 10 24
18 11 5
18 12 51
18 13 48
18 14 45
18 15 2
18 16 42
18 17 38
19 0 21
19 1 33
19 2 54
19 3 37
19 4 3
19 5 3
19 6 13
19 7 10
19 8 13
19 9 5
19 10 7
19 11 45
19 12 30
19 13 27
19 14 26
19 15 6
19 16 11
19 17 36
19 18 7
20 0 32
20 1 28
20 2 12
20 3 8
20 4 2
20 5 12
20 6 14
20 7 17
20 8 32
20 9 23
20 10 45
20 11 20
20 12 9
20 13 2
20 14 55
20 15 46
20 16 1
20 17 56
20 18 42
20 19 36
21 0 17
21 1 39
21 2 43
21 3 29
21 4 27
21 5 14
21 6 39
21 7 33
21 8 39
21 9 53
21 10 2
21 11 35
21 12 46
21 13 26
21 14 49
21 15 3
21 16 7
21 17 5
21 18 1
21 19 20
21 20 39
22 0 51
22 1 14
22 2 54
22 3 1
22 4 41
22 5 53
22 6 14
22 7 19
22 8 54
22 9 52
22 10 31
22 11 49
22 12 7
22 13 43
22 14 17
22 15 45
22 16 32
22 17 20
22 18 23
22 19 34
22 20 16
22 21 52
23 0 2
23 1 24
23 2 13
23 3 40
23 4 43
23 5 12
23 6 32
23 7 34
23 8 13
23 9 52
23 10 25
23 11 7
23 12 36
23 13 17
23 14 20
23 15 53
23 16 36
23 17 30
23 18 25
23 19 6
23 20 24
23 21 9
23 22 52
24 0 43
24 1 18
24 2 52
24 3 36
24 4 41
24 5 2
24 6 26
24 7 28
24 8 24
24 9 3
24 10 4
24 11 10
24 12 3
24 13 32
24 14 34
24 15 31
24 16 54
24 17 12
24 18 50
24 19 17
24 20 22
24 21 44
24 22 36
24 23 11
25 0 24
25 1 48
25 2 54
25 3 41
25 4 36
25 5 41
25 6 52
25 7 53
25 8 36
25 9 15
25 10 49
25 11 54
25 12 37
25 13 22
25 14 18
25 15 22
25 16 53
25 17 34
25 18 36
25 19 32
25 20 30
25 21 28
25 22 55
25 23 21
25 24 28
26 0 10
26 1 51
26 2 13
26 3 54
26 4 14
26 5 55
26 6 7
26 7 29
26 8 36
26 9 5
26 10 7
26 11 34
26 12 18
26 13 14
26 14 39
26 15 7
26 16 50
26 17 14
26 18 37
26 19 21
26 20 34
26 21 24
26 22 30
26 23 2
26 24 56
26 25 9
27 0 45
27 1 47
27 2 29
27 3 12
27 4 19
27 5 55
27 6 37
27 7 47
27 8 45
27 9 32
27 10 41
27 11 19
27 12 54
27 13 48
27 14 42
27 15 19
27 16 13
27 17 29
27 18 34
27 19 9
27 20 40
27 21 35
27 22 23
27 23 5
27 24 40
27 25 14
27 26 14
28 0 2
28 1 30
28 2 6
28 3 18
28 4 25
28 5 44
28 6 29
28 7 48
28 8 2
28 9 43
28 10 11
28 11 19
28 12 46
28 13 29
28 14 27
28 15 54
28 16 35
28 17 40
28 18 18
28 19 20
28 20 50
28 21 17
28 22 7
28 23 55
28 24 35
28 25 43
28 26 4
28 27 41
29 0 31
29 1 18
29 2 34
29 3 33
29 4 9
29 5 20
29 6 12
29 7 35
29 8 52
29 9 9
29 10 42
29 11 18
29 12 54
29 13 24
29 14 48
29 15 8
29 16 1
29 17 16
29 18 14
29 19 5
29 20 22
29 21 47
29 22 48
29 23 15
29 24 22
29 25 26
29 26 13
29 27 55
29 28 6
30 0 11
30 1 34
30 2 38
30 3 45
30 4 6
30 5 29
30 6 52
30 7 22
30 8 32
30 9 51
30 10 16
30 11 26
30 12 34
30 13 7
30 14 29
30 15 54
30 16 45
30 17 15
30 18 36
30 19 25
30 20 31
30 21 33
30 22 48
30 23 38
30 24 33
30 25 16
30 26 13
30 27 47
30 28 55
30 29 25
31 0 34
31 1 30
31 2 7
31 3 23
31 4 21
31 5 38
31 6 24
31 7 28
31 8 45
31 9 33
31 10 35
31 11 52
31 12 12
31 13 4
31 14 4
31 15 26
31 16 9
31 17 17
31 18 16
31 19 9
31 20 18
31 21 46
31 22 37
31 23 7
31 24 55
31 25 40
31 26 12
31 27 54
31 28 9
31 29 13
31 30 34
32 0 53
32 1 33
32 2 55
32 3 48
32 4 26
32 5 25
32 6 33
32 7 39
32 8 24
32 9 22
32 10 45
32 11 10
32 12 56
32 13 12
32 14 41
32 15 7
32 16 30
32 17 20
32 18 18
32 19 31
32 20 27
32 21 44
32 22 9
32 23 7
32 24 5
32 25 21
32 26 42
32 27 18
32 28 41
32 29 30
32 30 26
32 31 43
33 0 18
33 1 41
33 2 25
33 3 56
33 4 20
33 5 19
33 6 13
33 7 32
33 8 9
33 9 36
33 10 53
33 11 19
33 12 40
33 13 11
33 14 9
33 15 11
33 16 48
33 17 49
33 18 10
33 19 45
33 20 8
33 21 8
33 22 41
33 23 48
33 24 12
33 25 22
33 26 45
33 27 4
33 28 30
33 29 29
33 30 3
33 31 53
33 32 14
34 0 6
34 1 40
34 2 50
34 3 3
34 4 35
34 5 20
34 6 19
34 7 27
34 8 39
34 9 33
34 10 52
34 11 7
34 12 27
34 13 36
34 14 49
34 15 30
34 16 25
34 17 36
34 18 3
34 19 48
34 20 12
34 21 42
34 22 31
34 23 27
34 24 12
34 25 26
34 26 31
34 27 19
34 28 24
34 29 51
34 30 52
34 31 22
34 32 23
34 33 2
35 0 45
35 1 36
35 2 11
35 3 34
35 4 7
35 5 41
35 6 3
35 7 44
35 8 46
35 9 41
35 10 5
35 11 39
35 12 9
35 13 54
35 14 1
35 15 52
35 16 23
35 17 46
35 18 46
35 19 12
35 20 48
35 21 48
35 22 2
35 23 38
35 24 56
35 25 45
35 26 47
35 27 12
35 28 1
35 29 6
35 30 9
35 31 54
35 32 13
35 33 12
35 34 35
36 0 13
36 1 10
36 2 41
36 3 54
36 4 47
36 5 11
36 6 7
36 7 3
36 8 56
36 9 43
36 10 37
36 11 3
36 12 22
36 13 18
36 14 34
36 15 6
36 16 35
36 17 40
36 18 7
36 19 23
36 20 30
36 21 4
36 22 7
36 23 54
36 24 2
36 25 22
36 26 13
36 27 4
36 28 9
36 29 10
36 30 28
36 31 25
36 32 53
36 33 12
36 34 24
36 35 33
37 0 2
37 1 44
37 2 45
37 3 33
37 4 3
37 5 25
37 6 1
37 7 45
37 8 22
37 9 52
37 10 51
37 11 43
37 12 44
37 13 36
37 14 36
37 15 28
37 16 1
37 17 9
37 18 47
37 19 53
37 20 13
37 21 23
37 22 52
37 23 16
37 24 4
37 25 27
37 26 43
37 27 21
37 28 34
37 29 35
37 30 43
37 31 21
37 32 28
37 33 11
37 34 54
37 35 29
37 36 1
38 0 9
38 1 4
38 2 33
38 3 55
38 4 16
38 5 15
38 6 22
38 7 36
38 8 56
38 9 9
38 10 18
38 11 45
38 12 39
38 13 29
38 14 3
38 15 13
38 16 43
38 17 20
38 18 35
38 19 49
38 20 1
38 21 33
38 22 36
38 23 8
38 24 44
38 25 26
38 26 16
38 27 51
38 28 12
38 29 17
38 30 26
38 31 27
38 32 26
38 33 21
38 34 7
38 35 46
38 36 39
38 37 51
39 0 39
39 1 53
39 2 15
39 3 29
39 4 8
39 5 1
39 6 19
39 7 35
39 8 4
39 9 42
39 10 52
39 11 31
39 12 54
39 13 4
39 14 1
39 15 31
39 16 15
39 17 10
39 18 20
39 19 41
39 20 8
39 21 19
39 22 1
39 23 40
39 24 8
39 25 15
39 26 43
39 27 35
39 28 40
39 29 46
39 30 51
39 31 29
39 32 44
39 33 11
39 34 18
39 35 30
39 36 35
39 37 6
39 38 20
40 0 14
40 1 28
40 2 35
40 3 16
40 4 10
40 5 23
40 6 26
40 7 21
40 8 7
40 9 17
40 10 51
40 11 31
40 12 8
40 13 47
40 14 54
40 15 29
40 16 12
40 17 36
40 18 9
40 19 31
40 20 34
40 21 34
40 22 55
40 23 29
40 24 1
40 25 30
40 26 13
40 27 43
40 28 38
40 29 10
40 30 27
40 31 49
40 32 53
40 33 48
40 34 32
40 35 30
40 36 14
40 37 37
40 38 41
40 39 50
41 0 21
41 1 12
41 2 48
41 3 22
41 4 19
41 5 34
41 6 53
41 7 33
41 8 32
41 9 42
41 10 42
41 11 41
41 12 47
41 13 14
41 14 12
41 15 6
41 16 18
41 17 41
41 18 11
41 19 8
41 20 54
41 21 15
41 22 24
41 23 7
41 24 25
41 25 54
41 26 53
41 27 48
41 28 2
41 29 11
41 30 22
41 31 33
41 32 43
41 33 56
41 34 37
41 35 56
41 36 46
41 37 24
41 38 5
41 39 22
41 40 9
42 0 10
42 1 8
42 2 51
42 3 24
42 4 30
42 5 3
42 6 37
42 7 10
42 8 27
42 9 10
42 10 14
42 11 36
42 12 35
42 13 44
42 14 43
42 15 28
42 16 14
42 17 33
42 18 18
42 19 39
42 20 39
42 21 28
42 22 51
42 23 55
42 24 35
42 25 48
42 26 53
42 27 45
42 28 7
42 29 42
42 30 36
42 31 45
42 32 47
42 33 45
42 34 35
42 35 49
42 36 10
42 37 27
42 38 42
42 39 50
42 40 23
42 41 4
43 0 25
43 1 56
43 2 31
43 3 45
43 4 7
43 5 33
43 6 56
43 7 32
43 8 3
43 9 10
43 10 11
43 11 21
43 12 9
43 13 37
43 14 13
43 15 36
43 16 23
43 17 50
43 18 46
43 19 29
43 20 51
43 21 22
43 22 12
43 23 19
43 24 38
43 25 44
43 26 49
43 27 37
43 28 48
43 29 6
43 30 55
43 31 19
43 32 48
43 33 11
43 34 16
43 35 49
43 36 30
43 37 44
43 38 36
43 39 51
43 40 33
43 41 55
43 42 24
44 0 29
44 1 33
44 2 11
44 3 23
44 4 37
44 5 32
44 6 52
44 7 7
44 8 1
44 9 47
44 10 46
44 11 30
44 12 12
44 13 22
44 14 36
44 15 40
44 16 46
44 17 38
44 18 35
44 19 43
44 20 43
44 21 42
44 22 54
44 23 6
44 24 20
44 25 32
44 26 28
44 27 2
44 28 28
44 29 5
44 30 47
44 31 4
44 32 16
44 33 47
44 34 26
44 35 31
44 36 45
44 37 47
44 38 44
44 39 22
44 40 43
44 41 27
44 42 39
44 43 5
45 0 34
45 1 51
45 2 40
45 3 18
45 4 51
45 5 18
45 6 10
45 7 41
45 8 17
45 9 42
45 10 26
45 11 44
45 12 16
45 13 20
45 14 13
45 15 41
45 16 41
45 17 40
45 18 36
45 19 4
45 20 38
45 21 8
45 22 41
45 23 1
45 24 55
45 25 7
45 26 3
45 27 5
45 28 47
45 29 32
45 30 8
45 31 31
45 32 8
45 33 24
45 34 37
45 35 13
45 36 26
45 37 40
45 38 10
45 39 28
45 40 42
45 41 6
45 42 56
45 43 45
45 44 15
46 0 45
46 1 22
46 2 19
46 3 22
46 4 46
46 5 6
46 6 49
46 7 11
46 8 35
46 9 17
46 10 28
46 11 51
46 12 8
46 13 54
46 14 1
46 15 41
46 16 47
46 17 31
46 18 11
46 19 38
46 20 30
46 21 26
46 22 11
46 23 20
46 24 42
46 25 31
46 26 38
46 27 37
46 28 5
46 29 48
46 30 34
46 31 8
46 32 53
46 33 3
46 34 37
46 35 23
46 36 17
46 37 34
46 38 45
46 39 31
46 40 30
46 41 20
46 42 18
46 43 48
46 44 38
46 45 3
47 0 33
47 1 6
47 2 11
47 3 23
47 4 14
47 5 7
47 6 27
47 7 7
47 8 18
47 9 31
47 10 36
47 11 26
47 12 4
47 13 56
47 14 6
47 15 1
47 16 50
47 17 47
47 18 12
47 19 45
47 20 6
47 21 32
47 22 46
47 23 56
47 24 10
47 25 24
47 26 37
47 27 43
47 28 35
47 29 26
47 30 52
47 31 56
47 32 9
47 33 33
47 34 6
47 35 56
47 36 5
47 37 9
47 38 24
47 39 27
47 40 31
47 41 55
47 42 14
47 43 8
47 44 1
47 45 1
47 46 8
48 0 3
48 1 55
48 2 7
48 3 37
48 4 22
48 5 51
48 6 24
48 7 5
48 8 16
48 9 42
48 10 21
48 11 25
48 12 44
48 13 43
48 14 30
48 15 36
48 16 21
48 17 14
48 18 32
48 19 46
48 20 18
48 21 35
48 22 5
48 23 42
48 24 53
48 25 42
48 26 11
48 27 13
48 28 35
48 29 36
48 30 56
48 31 49
48 32 43
48 33 52
48 34 23
48 35 18
48 36 37
48 37 22
48 38 54
48 39 13
48 40 28
48 41 51
48 42 26
48 43 21
48 44 54
48 45 27
48 46 42
48 47 33
49 0 25
49 1 49
49 2 51
49 3 39
49 4 40
49 5 25
49 6 31
49 7 18
49 8 20
49 9 7
49 10 14
49 11 26
49 12 31
49 13 11
49 14 1
49 15 7
49 16 4
49 17 56
49 18 29
49 19 24
49 20 12
49 21 18
49 22 25
49 23 54
49 24 25
49 25 55
49 26 9
49 27 13
49 28 42
49 29 14
49 30 31
49 31 39
49 32 55
49 33 43
49 34 45
49 35 25
49 36 42
49 37 15
49 38 20
49 39 46
49 40 38
49 41 25
49 42 24
49 43 11
49 44 55
49 45 12
49 46 42
49 47 2
49 48 42
50 0 43
50 1 24
50 2 42
50 3 14
50 4 6
50 5 9
50 6 53
50 7 27
50 8 28
50 9 1
50 10 22
50 11 26
50 12 32
50 13 46
50 14 20
50 15 53
50 16 40
50 17 29
50 18 23
50 19 53
50 20 4
50 21 15
50 22 51
50 23 47
50 24 19
50 25 4
50 26 26
50 27 8
50 28 51
50 29 16
50 30 21
50 31 11
50 32 30
50 33 9
50 34 44
50 35 19
50 36 8
50 37 13
50 38 56
50 39 18
50 40 28
50 41 32
50 42 2
50 43 53
50 44 12
50 45 41
50 46 43
50 47 23
50 48 48
50 49 12
51 0 50
51 1 35
51 2 26
51 3 38
51 4 38
51 5 29
51 6 31
51 7 16
51 8 14
51 9 10
51 10 25
51 11 46
51 12 44
51 13 16
51 14 32
51 15 23
51 16 10
51 17 12
51 18 4
51 19 21
51 20 25
51 21 42
51 22 44
51 23 55
51 24 31
51 25 20
51 26 26
51 27 27
51 28 9
51 29 10
51 30 48
51 31 36
51 32 22
51 33 34
51 34 50
51 35 32
51 36 43
51 37 50
51 38 16
51 39 46
51 40 46
51 41 1
51 42 7
51 43 28
51 44 9
51 45 2
51 46 18
51 47 26
51 48 48
51 49 27
51 50 1
52 0 39
52 1 21
52 2 30
52 3 13
52 4 55
52 5 38
52 6 2
52 7 31
52 8 7
52 9 6
52 10 40
52 11 19
52 12 1
52 13 49
52 14 2
52 15 2
52 16 9
52 17 41
52 18 23
52 19 23
52 20 41
52 21 2
52 22 3
52 23 45
52 24 11
52 25 47
52 26 28
52 27 46
52 28 52
52 29 23
52 30 30
52 31 52
52 32 27
52 33 50
52 34 2
52 35 2
52 36 27
52 37 51
52 38 10
52 39 40
52 40 18
52 41 43
52 42 48
52 43 2
52 44 43
52 45 5
52 46 10
52 47 54
52 48 39
52 49 20
52 50 34
52 51 44
53 0 17
53 1 31
53 2 56
53 3 2
53 4 18
53 5 50
53 6 27
53 7 48
53 8 27
53 9 19
53 10 11
53 11 50
53 12 52
53 13 26
53 14 8
53 15 3
53 16 28
53 17 40
53 18 39
53 19 39
53 20 5
53 21 13
53 22 32
53 23 6
53 24 16
53 25 49
53 26 8
53 27 28
53 28 16
53 29 46
53 30 50
53 31 30
53 32 38
53 33 11
53 34 36
53 35 27
53 36 28
53 37 24
53 38 18
53 39 18
53 40 38
53 41 19
53 42 32
53 43 16
53 44 55
53 45 6
53 46 55
53 47 56
53 48 47
53 49 44
53 50 54
53 51 48
53 52 37
54 0 40
54 1 43
54 2 28
54 3 42
54 4 19
54 5 43
54 6 25
54 7 37
54 8 5
54 9 17
54 10 18
54 11 45
54 12 9
54 13 36
54 14 5
54 15 25
54 16 51
54 17 40
54 18 25
54 19 43
54 20 32
54 21 49
54 22 9
54 23 5
54 24 44
54 25 37
54 26 44
54 27 51
54 28 22
54 29 34
54 30 32
54 31 12
54 32 52
54 33 5
54 34 6
54 35 51
54 36 15
54 37 14
54 38 53
54 39 54
54 40 7
54 41 14
54 42 35
54 43 1
54 44 20
54 45 16
54 46 24
54 47 42
54 48 20
54 49 25
54 50 10
54 51 22
54 52 53
54 53 4
55 0 29
55 1 1
55 2 33
55 3 9
55 4 44
55 5 31
55 6 36
55 7 14
55 8 24
55 9 36
55 10 18
55 11 40
55 12 6
55 13 44
55 14 17
55 15 5
55 16 37
55 17 27
55 18 14
55 19 22
55 20 2
55 21 2
55 22 34
55 23 15
55 24 55
55 25 34
55 26 37
55 27 13
55 28 16
55 29 27
55 30 24
55 31 45
55 32 31
55 33 32
55 34 3
55 35 55
55 36 9
55 37 40
55 38 40
55 39 21
55 40 33
55 41 20
55 42 18
55 43 2
55 44 17
55 45 33
55 46 16
55 47 41
55 48 8
55 49 27
55 50 17
55 51 21
55 52 32
55 53 32
55 54 3
56 0 28
56 1 21
56 2 33
56 3 51
56 4 23
56 5 45
56 6 52
56 7 18
56 8 4
56 9 54
56 10 23
56 11 25
56 12 3
56 13 2
56 14 20
56 15 12
56 16 2
56 17 56
56 18 7
56 19 38
56 20 32
56 21 16
56 22 21
56 23 27
56 24 26
56 25 3
56 26 55
56 27 2
56 28 31
56 29 47
56 30 10
56 31 19
56 32 50
56 33 39
56 34 28
56 35 33
56 36 45
56 37 16
56 38 23
56 39 25
56 40 6
56 41 11
56 42 46
56 43 3
56 44 25
56 45 50
56 46 6
56 47 23
56 48 37
56 49 39
56 50 39
56 51 41
56 52 37
56 53 45
56 54 50
56 55 54
57 0 6
57 1 25
57 2 28
57 3 20
57 4 48
57 5 25
57 6 6
57 7 49
57 8 5
57 9 43
57 10 5
57 11 52
57 12 28
57 13 55
57 14 9
57 15 34
57 16 3
57 17 44
57 18 31
57 19 27
57 20 6
57 21 43
57 22 10
57 23 27
57 24 46
57 25 5
57 26 42
57 27 37
57 28 15
57 29 55
57 30 19
57 31 42
57 32 48
57 33 8
57 34 51
57 35 33
57 36 31
57 37 14
57 38 50
57 39 13
57 40 17
57 41 23
57 42 49
57 43 10
57 44 30
57 45 13
57 46 47
57 47 40
57 48 46
57 49 33
57 50 28
57 51 47
57 52 44
57 53 34
57 54 56
57 55 49
57 56 2
58 0 16
58 1 34
58 2 46
58 3 43
58 4 39
58 5 10
58 6 12
58 7 56
58 8 48
58 9 7
58 10 43
58 11 56
58 12 31
58 13 21
58 14 18
58 15 3
58 16 44
58 17 51
58 18 45
58 19 46
58 20 40
58 21 7
58 22 6
58 23 45
58 24 4
58 25 31
58 26 7
58 27 37
58 28 26
58 29 8
58 30 31
58 31 32
58 32 16
58 33 53
58 34 54
58 35 42
58 36 42
58 37 48
58 38 16
58 39 44
58 40 36
58 41 52
58 42 51
58 43 23
58 44 28
58 45 14
58 46 39
58 47 55
58 48 33
58 49 29
58 50 52
58 51 45
58 52 40
58 53 38
58 54 50
58 55 42
58 56 33
58 57 20
59 0 29
59 1 11
59 2 48
59 3 56
59 4 15
59 5 7
59 6 17
59 7 42
59 8 30
59 9 42
59 10 12
59 11 37
59 12 44
59 13 7
59 14 56
59 15 44
59 16 19
59 17 39
59 18 18
59 19 3
59 20 48
59 21 36
59 22 23
59 23 9
59 24 25
59 25 17
59 26 22
59 27 47
59 28 10
59 29 27
59 30 40
59 31 6
59 32 29
59 33 53
59 34 1
59 35 34
59 36 48
59 37 42
59 38 6
59 39 50
59 40 56
59 41 2
59 42 39
59 43 24
59 44 36
59 45 23
59 46 19
59 47 32
59 48 51
59 49 13
59 50 31
59 51 45
59 52 31
59 53 12
59 54 53
59 55 10
59 56 23
59 57 16
59 58 6
60 0 24
60 1 18
60 2 36
60 3 25
60 4 18
60 5 23
60 6 16
60 7 10
60 8 23
60 9 27
60 10 28
60 11 10
60 12 5
60 13 4
60 14 27
60 15 33
60 16 21
60 17 15
60 18 18
60 19 6
60 20 20
60 21 20
60 22 33
60 23 23
60 24 46
60 25 54
60 26 19
60 27 19
60 28 30
60 29 15
60 30 36
60 31 38
60 32 27
60 33 15
60 34 33
60 35 31
60 36 33
60 37 22
60 38 10
60 39 45
60 40 5
60 41 54
60 42 18
60 43 6
60 44 30
60 45 1
60 46 11
60 47 25
60 48 48
60 49 40
60 50 29
60 51 10
60 52 13
60 53 26
60 54 21
60 55 56
60 56 30
60 57 6
60 58 52
60 59 24
